
Gurobi 12.0.0 (linux64, C++) logging started Wed Dec 25 15:13:57 2024

Set parameter Username
Set parameter LicenseID to value 2602791
Set parameter LogFile to value "gurobi.log"
Academic license - for non-commercial use only - expires 2025-12-22
